12 24 9 10
10 2 15 17 7 18 10 20 16 18 12 14 17 8 7 7 18 2 5 20 1 15 12 16 
0.36 7.25 1.41 5.71 0.61 2.59 1.9 7.37 0.03 4.04 4.31 2.32 6.44 3.1 6.45 4.13 1.48 1.59 3.08 0.59 4.73 6.09 3.1 3.04 
1.53 6.48 0.69 7.2 3.65 6.65 5.8 3.96 2.97 0.96 6.87 4.47 0.05 1.44 3.41 1.53 1.55 4.73 3.74 0.87 6.62 0 2.02 1.65 
5.84 1.58 0.93 7.66 2.64 5.18 7.59 1.16 5.44 6.96 7.17 0.86 3.45 5.6 0.34 5.85 6.19 1.23 4.27 7.7 7.54 0.37 6.74 7.79 
6.15 5.71 5.26 2.38 3.8 0.57 7.63 5.16 0.15 4.2 5.8 7.1 0.86 1.78 5.33 2.11 2.45 5.72 0.46 0.02 7.23 2.31 5.21 3.54 
1.1 3.08 0.15 6.86 7.71 1.17 0.52 3.95 1.73 0.56 0.98 4.86 3.85 2.38 2.72 1.86 3.07 4.76 1.91 0.31 0.55 4.52 0.85 3.72 
6.03 3.21 3.38 6.06 6.2 4.56 0.79 3.45 5.78 3.97 1.61 7.18 3.58 5.77 7.41 3.32 6.17 1.73 7.84 7.4 5.04 0.82 6.37 7.49 
4.49 6.06 7.08 7.05 3.68 7.7 0.68 4.99 0.37 1.43 3.39 4.6 1.93 4.89 6.41 3.68 4.51 6.31 2.61 5.59 5.18 6.47 4.87 7.01 
4.51 3.52 1.09 2.58 6.33 1.44 6.03 0.56 5.23 0.87 2.38 6.26 2.66 1.38 5.91 7.27 2.08 7.9 2.89 3.76 2.54 1.78 0.9 6.22 
0.74 1.89 0.75 5.01 2.54 7.54 3.5 4.55 2.29 3.43 1.54 6.83 3.2 6.98 7.93 4.1 4.33 5.2 7.56 7.19 3.02 1.31 1.75 5.03 
4 4 4 4 4 4 4 4 4 4 4 4 4 4 4 4 4 4 4 4 4 4 4 4 
4.04 5.66 3.54 3.86 6.05 0.46 4.9 6.01 4.98 5.72 2.82 3.89 7.17 1.48 4.25 3.11 1.73 5.68 3.71 3.89 2.58 0.76 2.16 4.71 
7.7 3.96 5.82 2.65 2.45 1.67 1.51 5 0.82 1.44 5.33 7.94 5.01 4.85 2.15 4.39 7.81 5.13 3.68 7.57 2.99 5.02 5.99 6.62 
1 1 1 1 1 1 1 1 1 1 1 1 1 1 1 1 1 1 1 1 1 1 1 1 
1 1 1 1 1 1 1 1 1 1 1 1 1 1 1 1 1 1 1 1 1 1 1 1 
1 1 1 1 1 1 1 1 1 1 1 1 1 1 1 1 1 1 1 1 1 1 1 1 
1 1 1 1 1 1 1 1 1 1 1 1 1 1 1 1 1 1 1 1 1 1 1 1 
1 1 1 1 1 1 1 1 1 1 1 1 1 1 1 1 1 1 1 1 1 1 1 1 
1 1 1 1 1 1 1 1 1 1 1 1 1 1 1 1 1 1 1 1 1 1 1 1 
1 1 1 1 1 1 1 1 1 1 1 1 1 1 1 1 1 1 1 1 1 1 1 1 
1 1 1 1 1 1 1 1 1 1 1 1 1 1 1 1 1 1 1 1 1 1 1 1 
1 1 1 1 1 1 1 1 1 1 1 1 1 1 1 1 1 1 1 1 1 1 1 1 
1 1 1 1 1 1 1 1 1 1 1 1 1 1 1 1 1 1 1 1 1 1 1 1 
1 1 1 1 1 1 1 1 1 1 1 1 1 1 1 1 1 1 1 1 1 1 1 1 
1 1 1 1 1 1 1 1 1 1 1 1 1 1 1 1 1 1 1 1 1 1 1 1 
0.01 0.01 0.01 0.01 0.01 0.01 0.01 0.01 0.01 0.01 0.01 0.01 0.01 0.01 0.01 0.01 0.01 0.01 0.01 0.01 0.01 0.01 0.01 0.01 
0.02 0.02 0.02 0.02 0.02 0.02 0.02 0.02 0.02 0.02 0.02 0.02 0.02 0.02 0.02 0.02 0.02 0.02 0.02 0.02 0.02 0.02 0.02 0.02 
0.03 0.03 0.03 0.03 0.03 0.03 0.03 0.03 0.03 0.03 0.03 0.03 0.03 0.03 0.03 0.03 0.03 0.03 0.03 0.03 0.03 0.03 0.03 0.03 
0.04 0.04 0.04 0.04 0.04 0.04 0.04 0.04 0.04 0.04 0.04 0.04 0.04 0.04 0.04 0.04 0.04 0.04 0.04 0.04 0.04 0.04 0.04 0.04 
0.05 0.05 0.05 0.05 0.05 0.05 0.05 0.05 0.05 0.05 0.05 0.05 0.05 0.05 0.05 0.05 0.05 0.05 0.05 0.05 0.05 0.05 0.05 0.05 
0.06 0.06 0.06 0.06 0.06 0.06 0.06 0.06 0.06 0.06 0.06 0.06 0.06 0.06 0.06 0.06 0.06 0.06 0.06 0.06 0.06 0.06 0.06 0.06 
0.07 0.07 0.07 0.07 0.07 0.07 0.07 0.07 0.07 0.07 0.07 0.07 0.07 0.07 0.07 0.07 0.07 0.07 0.07 0.07 0.07 0.07 0.07 0.07 
0.08 0.08 0.08 0.08 0.08 0.08 0.08 0.08 0.08 0.08 0.08 0.08 0.08 0.08 0.08 0.08 0.08 0.08 0.08 0.08 0.08 0.08 0.08 0.08 
0.09 0.09 0.09 0.09 0.09 0.09 0.09 0.09 0.09 0.09 0.09 0.09 0.09 0.09 0.09 0.09 0.09 0.09 0.09 0.09 0.09 0.09 0.09 0.09 
0.1 0.1 0.1 0.1 0.1 0.1 0.1 0.1 0.1 0.1 0.1 0.1 0.1 0.1 0.1 0.1 0.1 0.1 0.1 0.1 0.1 0.1 0.1 0.1 
0.5 0.5 0.5 0.5 0.5 0.5 0.5 0.5 0.5 0.5 0.5 0.5 0.5 0.5 0.5 0.5 0.5 0.5 0.5 0.5 0.5 0.5 0.5 0.5 
1 1 1 1 1 1 1 1 1 1 1 1 1 1 1 1 1 1 1 1 1 1 1 1 
